(set-option :print-success false)
(set-logic QF_UF)
(declare-sort x40 0)
(declare-sort x153 0)
(declare-fun x39 () x153)
(declare-fun x102 () x153)
(declare-fun x73 () x153)
(declare-fun x125 (x153 x153) x153)
(declare-fun x94 () x153)
(declare-fun x105 () x153)
(assert (not (and (and (= x39 (x125 x105 x73)) (and (= (x125 x102 x73) x94) (= (x125 x73 x73) x105))) (= (x125 x39 x105) x102))))
(assert (not (and (= x73 (x125 x94 x105)) (and (and (= (x125 x39 x39) x105) (= (x125 x73 x39) x102)) (= x94 (x125 x105 x39))))))
(assert (not (and (and (and (= (x125 x102 x102) x94) (= x105 (x125 x39 x102))) (= (x125 x94 x102) x73)) (= (x125 x73 x94) x39))))
(assert (not (and (and (= (x125 x94 x73) x39) (and (= x105 (x125 x102 x73)) (= (x125 x73 x73) x94))) (= x102 (x125 x39 x94)))))
(assert (not (and (= x102 (x125 x94 x105)) (and (= x94 (x125 x105 x39)) (and (= x105 (x125 x39 x39)) (= x73 (x125 x102 x39)))))))
(assert (not (and (= x94 (x125 x105 x73)) (and (and (= (x125 x94 x102) x39) (= (x125 x102 x102) x73)) (= (x125 x73 x102) x105)))))
(assert (not (and (and (and (= (x125 x105 x105) x102) (= x73 (x125 x39 x105))) (= x94 (x125 x102 x105))) (= x39 (x125 x94 x102)))))
(assert (not (and (and (= (x125 x73 x102) x94) (and (= (x125 x102 x102) x73) (= x105 (x125 x39 x102)))) (= x39 (x125 x94 x73)))))
(assert (not (and (and (= x39 (x125 x105 x94)) (and (= x105 (x125 x94 x94)) (= x73 (x125 x102 x94)))) (= x102 (x125 x39 x105)))))
(assert (not (and (and (and (= x105 (x125 x39 x73)) (= x102 (x125 x73 x73))) (= x94 (x125 x102 x73))) (= x39 (x125 x94 x102)))))
(assert (not (and (and (and (= x39 (x125 x105 x94)) (= (x125 x94 x94) x102)) (= (x125 x102 x94) x73)) (= (x125 x73 x102) x105))))
(assert (not (and (= (x125 x73 x105) x39) (and (= x73 (x125 x105 x102)) (and (= x105 (x125 x102 x102)) (= (x125 x39 x102) x94))))))
(assert (not (and (= (x125 x105 x73) x94) (and (= x105 (x125 x73 x39)) (and (= x73 (x125 x39 x39)) (= (x125 x94 x39) x102))))))
(assert (not (and (= (x125 x39 x102) x73) (and (and (= x102 (x125 x105 x105)) (= x94 (x125 x73 x105))) (= x39 (x125 x102 x105))))))
(assert (not (and (and (and (= x73 (x125 x102 x102)) (= x94 (x125 x39 x102))) (= (x125 x73 x102) x105)) (= x39 (x125 x105 x73)))))
(assert (not (and (and (= x105 (x125 x39 x73)) (and (= (x125 x73 x73) x39) (= x102 (x125 x94 x73)))) (= x94 (x125 x105 x39)))))
(assert (not (and (and (= x39 (x125 x102 x94)) (and (= x73 (x125 x105 x94)) (= x102 (x125 x94 x94)))) (= x105 (x125 x39 x102)))))
(assert (not (and (and (and (= (x125 x105 x39) x102) (= x73 (x125 x39 x39))) (= x94 (x125 x73 x39))) (= x105 (x125 x94 x73)))))
(assert (not (and (= x73 (x125 x102 x105)) (and (and (= (x125 x94 x94) x105) (= x39 (x125 x73 x94))) (= (x125 x105 x94) x102)))))
(assert (not (and (and (and (= (x125 x102 x94) x39) (= (x125 x94 x94) x105)) (= x73 (x125 x105 x94))) (= (x125 x73 x105) x102))))
(assert (not (and (= x39 (x125 x102 x105)) (and (and (= x105 (x125 x73 x73)) (= x94 (x125 x39 x73))) (= (x125 x105 x73) x102)))))
(assert (not (and (= x94 (x125 x73 x102)) (and (and (= (x125 x105 x105) x102) (= (x125 x94 x105) x39)) (= x73 (x125 x102 x105))))))
(assert (not (and (and (and (= (x125 x39 x73) x102) (= (x125 x73 x73) x94)) (= x105 (x125 x94 x73))) (= (x125 x105 x94) x39))))
(assert (not (and (and (= (x125 x39 x105) x73) (and (= x39 (x125 x105 x105)) (= x94 (x125 x102 x105)))) (= x102 (x125 x73 x39)))))
(assert (not (and (= (x125 x102 x39) x73) (and (= x102 (x125 x39 x94)) (and (= x105 (x125 x73 x94)) (= (x125 x94 x94) x39))))))
(assert (not (and (and (= (x125 x102 x39) x94) (and (= x105 (x125 x73 x39)) (= x102 (x125 x39 x39)))) (= x73 (x125 x94 x102)))))
(assert (let ((x154 (x125 x105 x94)) (x95 (x125 x102 x105)) (x53 (x125 x94 x105)) (x4 (x125 x102 x94)) (x143 (x125 x102 x39)) (x134 (x125 x73 x39)) (x139 (x125 x94 x39)) (x56 (x125 x105 x105)) (x76 (x125 x39 x73)) (x147 (x125 x105 x73)) (x121 (x125 x73 x102)) (x49 (x125 x105 x102)) (x108 (x125 x102 x102)) (x96 (x125 x39 x94)) (x57 (x125 x102 x73)) (x55 (x125 x39 x102)) (x116 (x125 x105 x39)) (x45 (x125 x73 x73)) (x123 (x125 x94 x73)) (x38 (x125 x94 x102)) (x46 (x125 x39 x105)) (x42 (x125 x73 x105)) (x7 (x125 x94 x94)) (x8 (x125 x73 x94)) (x63 (x125 x39 x39))) (and (and (and (and (and (and (and (and (or (or (or (= x45 x105) (or (= x45 x94) (= x45 x73))) (= x102 x45)) (= x45 x39)) (or (= x8 x39) (or (= x102 x8) (or (= x8 x105) (or (= x8 x73) (= x94 x8)))))) (or (or (or (= x42 x105) (or (= x42 x94) (= x73 x42))) (= x102 x42)) (= x39 x42))) (or (or (or (= x105 x121) (or (= x121 x73) (= x121 x94))) (= x121 x102)) (= x121 x39))) (or (= x134 x39) (or (or (= x105 x134) (or (= x94 x134) (= x73 x134))) (= x134 x102)))) (and (or (= x139 x39) (or (= x102 x139) (or (or (= x139 x94) (= x139 x73)) (= x105 x139)))) (and (and (or (or (= x102 x53) (or (= x105 x53) (or (= x53 x94) (= x73 x53)))) (= x39 x53)) (and (or (= x39 x7) (or (= x102 x7) (or (= x105 x7) (or (= x7 x73) (= x7 x94))))) (or (= x123 x39) (or (= x123 x102) (or (= x123 x105) (or (= x123 x73) (= x94 x123))))))) (or (or (= x102 x38) (or (= x105 x38) (or (= x94 x38) (= x73 x38)))) (= x38 x39))))) (and (or (or (or (= x105 x116) (or (= x73 x116) (= x116 x94))) (= x116 x102)) (= x39 x116)) (and (or (= x49 x39) (or (= x102 x49) (or (= x49 x105) (or (= x94 x49) (= x73 x49))))) (and (or (or (= x102 x56) (or (or (= x56 x94) (= x73 x56)) (= x56 x105))) (= x56 x39)) (and (or (or (or (or (= x154 x94) (= x154 x73)) (= x105 x154)) (= x154 x102)) (= x39 x154)) (or (= x39 x147) (or (or (= x147 x105) (or (= x94 x147) (= x147 x73))) (= x102 x147)))))))) (and (and (and (and (or (or (= x102 x4) (or (= x105 x4) (or (= x4 x73) (= x94 x4)))) (= x4 x39)) (or (or (= x102 x57) (or (= x57 x105) (or (= x57 x73) (= x57 x94)))) (= x39 x57))) (or (= x95 x39) (or (= x95 x102) (or (or (= x95 x94) (= x73 x95)) (= x105 x95))))) (or (= x108 x39) (or (or (or (= x108 x94) (= x108 x73)) (= x105 x108)) (= x108 x102)))) (or (= x143 x39) (or (or (= x105 x143) (or (= x143 x73) (= x94 x143))) (= x102 x143))))) (and (and (and (or (or (or (= x105 x46) (or (= x94 x46) (= x73 x46))) (= x102 x46)) (= x39 x46)) (and (or (or (= x102 x76) (or (= x76 x105) (or (= x76 x73) (= x76 x94)))) (= x39 x76)) (or (or (= x102 x96) (or (or (= x96 x73) (= x94 x96)) (= x105 x96))) (= x39 x96)))) (or (= x55 x39) (or (= x102 x55) (or (= x55 x105) (or (= x94 x55) (= x73 x55)))))) (or (= x63 x39) (or (or (or (= x94 x63) (= x63 x73)) (= x63 x105)) (= x102 x63)))))))
(assert (not (and (= (x125 x73 x94) x105) (and (and (= x94 (x125 x102 x102)) (= x39 (x125 x105 x102))) (= x73 (x125 x94 x102))))))
(assert (not (and (and (= (x125 x39 x73) x102) (and (= (x125 x105 x73) x94) (= (x125 x73 x73) x39))) (= (x125 x102 x39) x105))))
(assert (not (and (= (x125 x39 x73) x105) (and (and (= x73 (x125 x94 x94)) (= (x125 x105 x94) x102)) (= x39 (x125 x73 x94))))))
(assert (not (and (and (and (= x39 (x125 x102 x102)) (= (x125 x94 x102) x73)) (= x105 (x125 x39 x102))) (= (x125 x105 x39) x94))))
(assert (not (and (= (x125 x73 x39) x94) (and (= x73 (x125 x39 x105)) (and (= (x125 x105 x105) x39) (= x102 (x125 x94 x105)))))))
(assert (not (and (and (= x94 (x125 x102 x39)) (and (= (x125 x39 x39) x102) (= (x125 x105 x39) x73))) (= (x125 x94 x102) x105))))
(assert (not (and (and (and (= (x125 x39 x94) x102) (= (x125 x94 x94) x105)) (= (x125 x105 x94) x73)) (= (x125 x73 x105) x39))))
(assert (not (and (and (= x105 (x125 x102 x39)) (and (= (x125 x39 x39) x102) (= x73 (x125 x94 x39)))) (= (x125 x105 x102) x94))))
(assert (not (and (= x94 (x125 x39 x73)) (and (and (= (x125 x94 x105) x102) (= x73 (x125 x105 x105))) (= (x125 x73 x105) x39)))))
(assert (not (and (and (= (x125 x94 x39) x102) (and (= (x125 x39 x39) x94) (= (x125 x73 x39) x105))) (= x73 (x125 x102 x94)))))
(assert (or (and (not (= (x125 (x125 x39 x39) x39) x39)) (and (and (not (= (x125 (x125 x105 x39) x105) x39)) (and (not (= x39 (x125 (x125 x73 x39) x73))) (not (= x39 (x125 (x125 x94 x39) x94))))) (not (= x39 (x125 (x125 x102 x39) x102))))) (or (or (or (and (not (= x73 (x125 (x125 x39 x73) x39))) (and (and (and (not (= (x125 (x125 x94 x73) x94) x73)) (not (= x73 (x125 (x125 x73 x73) x73)))) (not (= x73 (x125 (x125 x105 x73) x105)))) (not (= x73 (x125 (x125 x102 x73) x102))))) (and (and (and (not (= (x125 (x125 x105 x94) x105) x94)) (and (not (= (x125 (x125 x73 x94) x73) x94)) (not (= (x125 (x125 x94 x94) x94) x94)))) (not (= (x125 (x125 x102 x94) x102) x94))) (not (= x94 (x125 (x125 x39 x94) x39))))) (and (not (= x105 (x125 (x125 x39 x105) x39))) (and (not (= x105 (x125 (x125 x102 x105) x102))) (and (not (= (x125 (x125 x105 x105) x105) x105)) (and (not (= x105 (x125 (x125 x73 x105) x73))) (not (= (x125 (x125 x94 x105) x94) x105))))))) (and (and (not (= (x125 (x125 x102 x102) x102) x102)) (and (and (not (= (x125 (x125 x73 x102) x73) x102)) (not (= x102 (x125 (x125 x94 x102) x94)))) (not (= x102 (x125 (x125 x105 x102) x105))))) (not (= x102 (x125 (x125 x39 x102) x39)))))))
(assert (or (and (not (= (x125 x39 x39) x39)) (and (and (not (= x105 (x125 x105 x39))) (and (not (= x73 (x125 x73 x39))) (not (= (x125 x94 x39) x94)))) (not (= x102 (x125 x102 x39))))) (or (or (and (and (and (and (not (= (x125 x94 x105) x94)) (not (= (x125 x73 x105) x73))) (not (= x105 (x125 x105 x105)))) (not (= (x125 x102 x105) x102))) (not (= (x125 x39 x105) x39))) (or (and (and (and (not (= (x125 x105 x73) x105)) (and (not (= x94 (x125 x94 x73))) (not (= x73 (x125 x73 x73))))) (not (= x102 (x125 x102 x73)))) (not (= x39 (x125 x39 x73)))) (and (not (= (x125 x39 x94) x39)) (and (and (not (= (x125 x105 x94) x105)) (and (not (= (x125 x73 x94) x73)) (not (= (x125 x94 x94) x94)))) (not (= x102 (x125 x102 x94))))))) (and (not (= x39 (x125 x39 x102))) (and (and (and (not (= (x125 x94 x102) x94)) (not (= (x125 x73 x102) x73))) (not (= x105 (x125 x105 x102)))) (not (= (x125 x102 x102) x102)))))))
(assert (not (and (= (x125 x94 x102) x73) (and (= x94 (x125 x102 x105)) (and (= x39 (x125 x73 x105)) (= x102 (x125 x105 x105)))))))
(assert (not (and (and (and (= x73 (x125 x94 x39)) (= (x125 x39 x39) x105)) (= x102 (x125 x105 x39))) (= x94 (x125 x102 x105)))))
(assert (not (and (= x102 (x125 x105 x73)) (and (= (x125 x73 x39) x105) (and (= (x125 x102 x39) x94) (= x73 (x125 x39 x39)))))))
(assert (not (and (= (x125 x102 x73) x94) (and (= (x125 x73 x39) x102) (and (= (x125 x39 x39) x73) (= x105 (x125 x94 x39)))))))
(assert (or (or (or (or (= x73 (x125 x73 (x125 x73 x73))) (= x94 (x125 x94 (x125 x94 x94)))) (= (x125 x105 (x125 x105 x105)) x105)) (= (x125 x102 (x125 x102 x102)) x102)) (= x39 (x125 x39 (x125 x39 x39)))))
(assert (not (and (= (x125 x39 x73) x105) (and (= x39 (x125 x73 x102)) (and (= x94 (x125 x105 x102)) (= x73 (x125 x102 x102)))))))
(assert (not (and (= (x125 x39 x73) x102) (and (and (= x105 (x125 x102 x94)) (= (x125 x94 x94) x73)) (= x39 (x125 x73 x94))))))
(assert (not (and (and (and (= (x125 x105 x105) x73) (= (x125 x94 x105) x39)) (= x102 (x125 x73 x105))) (= (x125 x102 x73) x94))))
(assert (let ((x8 (x125 x94 x94)) (x42 (x125 x105 x105)) (x121 (x125 x102 x102)) (x134 (x125 x39 x39)) (x45 (x125 x73 x73))) (and (not (= (x125 x134 x134) x39)) (and (not (= (x125 x121 x121) x102)) (and (and (not (= x73 (x125 x45 x45))) (not (= x94 (x125 x8 x8)))) (not (= (x125 x42 x42) x105)))))))
(assert (not (and (and (= (x125 x73 x105) x94) (and (= (x125 x39 x105) x102) (= x73 (x125 x105 x105)))) (= x39 (x125 x94 x73)))))
(assert (not (and (= (x125 x105 x94) x39) (and (and (= (x125 x39 x102) x73) (= (x125 x102 x102) x94)) (= x105 (x125 x94 x102))))))
(assert (not (and (and (and (= x39 (x125 x102 x102)) (= (x125 x73 x102) x94)) (= x105 (x125 x39 x102))) (= (x125 x105 x39) x73))))
(assert (not (and (and (and (= x73 (x125 x94 x94)) (= x105 (x125 x39 x94))) (= (x125 x73 x94) x102)) (= (x125 x102 x73) x39))))
(assert (not (and (= x39 (x125 x94 x105)) (and (= x94 (x125 x105 x102)) (and (= x105 (x125 x102 x102)) (= x73 (x125 x39 x102)))))))
(assert (not (and (and (and (= (x125 x94 x94) x39) (= x73 (x125 x102 x94))) (= (x125 x39 x94) x105)) (= (x125 x105 x39) x102))))
(assert (not (and (and (and (= x94 (x125 x39 x105)) (= (x125 x105 x105) x102)) (= (x125 x102 x105) x73)) (= x39 (x125 x73 x102)))))
(assert (not (and (= x39 (x125 x73 x94)) (and (and (= (x125 x105 x105) x94) (= (x125 x39 x105) x102)) (= (x125 x94 x105) x73)))))
(assert (not (and (= x105 (x125 x102 x94)) (and (= x102 (x125 x94 x73)) (and (= (x125 x73 x73) x94) (= x39 (x125 x105 x73)))))))
(assert (not (and (and (and (= x105 (x125 x94 x73)) (= (x125 x73 x73) x39)) (= x102 (x125 x39 x73))) (= (x125 x102 x39) x94))))
(assert (not (and (= x73 (x125 x102 x105)) (and (and (= x94 (x125 x73 x39)) (= x105 (x125 x39 x39))) (= (x125 x105 x39) x102)))))
(assert (not (and (= (x125 x105 x102) x39) (and (= (x125 x102 x73) x105) (and (= x102 (x125 x73 x73)) (= (x125 x39 x73) x94))))))
(assert (not (and (= x39 (x125 x105 x102)) (and (= (x125 x102 x94) x105) (and (= (x125 x39 x94) x73) (= (x125 x94 x94) x102))))))
(assert (not (and (= (x125 x73 x94) x102) (and (= (x125 x94 x39) x73) (and (= x105 (x125 x102 x39)) (= (x125 x39 x39) x94))))))
(assert (not (and (= (x125 x105 x73) x39) (and (= (x125 x73 x94) x105) (and (= x73 (x125 x94 x94)) (= (x125 x39 x94) x102))))))
(assert (not (and (= x39 (x125 x94 x105)) (and (= (x125 x105 x73) x94) (and (= x102 (x125 x39 x73)) (= x105 (x125 x73 x73)))))))
(assert (let ((x36 (x125 x94 x94)) (x11 (x125 x102 x94)) (x47 (x125 x102 x105)) (x99 (x125 x73 x94)) (x101 (x125 x73 x73)) (x113 (x125 x39 x102)) (x30 (x125 x105 x73)) (x15 (x125 x94 x102)) (x131 (x125 x105 x102)) (x138 (x125 x39 x73)) (x65 (x125 x105 x39)) (x32 (x125 x94 x39)) (x88 (x125 x39 x105)) (x135 (x125 x105 x105)) (x22 (x125 x39 x39)) (x144 (x125 x102 x39)) (x28 (x125 x73 x105)) (x120 (x125 x94 x105)) (x77 (x125 x102 x102)) (x83 (x125 x105 x94)) (x1 (x125 x73 x102)) (x122 (x125 x94 x73)) (x12 (x125 x39 x94)) (x9 (x125 x73 x39)) (x74 (x125 x102 x73))) (let ((x134 (not (= x73 x30))) (x56 (not (= x73 x15))) (x75 (not (= x138 x39))) (x52 (not (= x94 x120))) (x100 (not (= x122 x94))) (x54 (not (= x105 x88))) (x8 (not (= x122 x73))) (x46 (not (= x73 x113))) (x49 (not (= x47 x73))) (x21 (not (= x1 x102))) (x93 (not (= x36 x94))) (x145 (not (= x105 x22))) (x24 (not (= x88 x102))) (x130 (not (= x94 x9))) (x76 (not (= x88 x73))) (x25 (not (= x131 x94))) (x13 (not (= x94 x74))) (x96 (not (= x65 x73))) (x67 (not (= x120 x105))) (x110 (not (= x94 x101))) (x48 (not (= x105 x9))) (x27 (not (= x105 x47))) (x155 (not (= x28 x102))) (x142 (not (= x36 x102))) (x43 (not (= x113 x39))) (x154 (not (= x11 x73))) (x140 (not (= x94 x77))) (x127 (not (= x30 x105))) (x81 (not (= x135 x105))) (x79 (not (= x47 x102))) (x59 (not (= x101 x39))) (x53 (not (= x120 x73))) (x45 (not (= x101 x73))) (x4 (not (= x73 x138))) (x85 (not (= x11 x105))) (x18 (not (= x105 x32))) (x156 (not (= x105 x65))) (x87 (not (= x94 x47))) (x89 (not (= x101 x105))) (x64 (not (= x36 x39))) (x31 (not (= x122 x105))) (x107 (not (= x101 x102))) (x147 (not (= x73 x1))) (x23 (not (= x1 x105))) (x58 (not (= x102 x12))) (x41 (not (= x74 x39))) (x38 (not (= x135 x73))) (x158 (not (= x102 x32))) (x29 (not (= x12 x94))) (x118 (not (= x22 x94))) (x61 (not (= x105 x99))) (x133 (not (= x144 x102))) (x149 (not (= x9 x39))) (x141 (not (= x120 x102))) (x63 (not (= x73 x22))) (x111 (not (= x144 x105))) (x78 (not (= x28 x39))) (x151 (not (= x105 x77))) (x152 (not (= x11 x94))) (x10 (not (= x105 x83))) (x148 (not (= x94 x138))) (x62 (not (= x94 x15))) (x17 (not (= x102 x83))) (x112 (not (= x39 x122))) (x117 (not (= x105 x138))) (x84 (not (= x83 x94))) (x108 (not (= x73 x12))) (x86 (not (= x1 x39))) (x57 (not (= x73 x77))) (x68 (not (= x105 x36))) (x16 (not (= x39 x32))) (x150 (not (= x102 x135))) (x6 (not (= x39 x120))) (x51 (not (= x83 x39))) (x137 (not (= x11 x39))) (x35 (not (= x39 x22))) (x124 (not (= x39 x99))) (x3 (not (= x102 x22))) (x123 (not (= x28 x73))) (x80 (not (= x102 x113))) (x20 (not (= x74 x102))) (x92 (not (= x102 x131))) (x136 (not (= x12 x39))) (x119 (not (= x113 x105))) (x71 (not (= x39 x30))) (x97 (not (= x138 x102))) (x104 (not (= x94 x65))) (x26 (not (= x15 x102))) (x114 (not (= x65 x39))) (x34 (not (= x94 x135))) (x132 (not (= x102 x99))) (x126 (not (= x94 x32))) (x95 (not (= x73 x9))) (x2 (not (= x28 x105))) (x60 (not (= x105 x12))) (x129 (not (= x28 x94))) (x70 (not (= x1 x94))) (x37 (not (= x77 x102))) (x72 (not (= x39 x88))) (x116 (not (= x131 x73))) (x103 (not (= x113 x94))) (x5 (not (= x105 x131))) (x157 (not (= x30 x94))) (x106 (not (= x105 x74))) (x90 (not (= x47 x39))) (x66 (not (= x9 x102))) (x139 (not (= x73 x74))) (x55 (not (= x73 x144))) (x91 (not (= x102 x11))) (x98 (not (= x39 x135))) (x82 (not (= x94 x88))) (x109 (not (= x15 x39))) (x143 (not (= x73 x32))) (x19 (not (= x94 x99))) (x115 (not (= x15 x105))) (x42 (not (= x73 x99))) (x14 (not (= x65 x102))) (x128 (not (= x94 x144))) (x7 (not (= x73 x83))) (x121 (not (= x73 x36))) (x33 (not (= x39 x77))) (x50 (not (= x144 x39))) (x146 (not (= x102 x30))) (x44 (not (= x131 x39))) (x69 (not (= x102 x122)))) (or (and (and (and (or x43 x50) (and (or x72 x114) (and (or x75 x149) (or x16 x136)))) (or x35 x35)) (and (and (and (and (or x44 x90) (and (and (or x71 x78) (or x51 x6)) (or x98 x98))) (or x72 x114)) (and (and (or x75 x149) (and (and (and (or x59 x59) (or x124 x112)) (or x71 x78)) (or x41 x86))) (and (or x16 x136) (and (or x109 x137) (and (and (or x112 x124) (or x64 x64)) (or x6 x51)))))) (and (or x43 x50) (and (or x33 x33) (and (and (or x109 x137) (or x86 x41)) (or x90 x44)))))) (or (or (or (and (and (and (or x55 x46) (and (and (or x49 x116) (and (or x154 x56) (or x147 x139))) (or x57 x57))) (and (and (and (or x95 x4) (and (and (and (or x45 x45) (or x8 x42)) (or x134 x123)) (or x139 x147))) (and (and (and (or x7 x53) (and (or x121 x121) (or x42 x8))) (or x56 x154)) (or x108 x143))) (and (and (or x49 x116) (and (and (or x7 x53) (or x134 x123)) (or x38 x38))) (or x96 x76)))) (and (or x63 x63) (and (and (or x96 x76) (and (or x4 x95) (or x108 x143))) (or x55 x46)))) (and (and (and (and (and (and (or x13 x70) (and (and (or x110 x110) (or x100 x19)) (or x129 x157))) (or x130 x148)) (and (and (and (and (or x93 x93) (or x19 x100)) (or x84 x52)) (or x62 x152)) (or x29 x126))) (and (or x82 x104) (and (and (or x34 x34) (and (or x157 x129) (or x84 x52))) (or x87 x25)))) (and (or x128 x103) (and (and (or x87 x25) (and (or x62 x152) (or x13 x70))) (or x140 x140)))) (and (or x118 x118) (and (and (or x82 x104) (and (or x29 x126) (or x148 x130))) (or x128 x103))))) (and (and (and (or x119 x111) (and (or x156 x54) (and (or x48 x117) (or x60 x18)))) (or x145 x145)) (and (and (and (or x156 x54) (and (and (and (or x67 x10) (or x127 x2)) (or x81 x81)) (or x5 x27))) (and (and (or x117 x48) (and (and (or x2 x127) (and (or x31 x61) (or x89 x89))) (or x23 x106))) (and (or x18 x60) (and (or x115 x85) (and (and (or x68 x68) (or x31 x61)) (or x67 x10)))))) (and (or x119 x111) (and (and (and (or x23 x106) (or x115 x85)) (or x27 x5)) (or x151 x151)))))) (and (and (and (or x80 x133) (and (or x37 x37) (and (or x92 x79) (and (or x26 x91) (or x21 x20))))) (and (and (and (and (or x91 x26) (and (and (or x69 x132) (or x142 x142)) (or x141 x17))) (or x158 x58)) (and (and (or x20 x21) (and (and (or x132 x69) (or x107 x107)) (or x146 x155))) (or x97 x66))) (and (or x24 x14) (and (or x79 x92) (and (or x150 x150) (and (or x155 x146) (or x17 x141))))))) (and (and (and (or x14 x24) (and (or x158 x58) (or x66 x97))) (or x133 x80)) (or x3 x3))))))))
(assert (not (and (= (x125 x94 x73) x102) (and (and (= (x125 x102 x39) x105) (= (x125 x39 x39) x73)) (= x94 (x125 x73 x39))))))
(assert (not (and (= (x125 x102 x73) x105) (and (= (x125 x73 x39) x102) (and (= (x125 x105 x39) x94) (= x73 (x125 x39 x39)))))))
(assert (not (and (= (x125 x94 x105) x102) (and (and (= x39 (x125 x102 x73)) (= x105 (x125 x73 x73))) (= x94 (x125 x105 x73))))))
(assert (not (and (and (= (x125 x94 x105) x39) (and (= x73 (x125 x102 x105)) (= (x125 x105 x105) x94))) (= x102 (x125 x39 x94)))))
(assert (and (not (= x39 x102)) (and (not (= x105 x39)) (and (not (= x105 x102)) (and (and (not (= x102 x94)) (and (and (and (and (not (= x73 x94)) (not (= x73 x105))) (not (= x102 x73))) (not (= x73 x39))) (not (= x94 x105)))) (not (= x39 x94)))))))
(assert (not (and (and (and (= x94 (x125 x105 x105)) (= (x125 x73 x105) x102)) (= (x125 x94 x105) x39)) (= x73 (x125 x39 x94)))))
(assert (not (and (= x39 (x125 x102 x105)) (and (= (x125 x105 x94) x102) (and (= x105 (x125 x94 x94)) (= x73 (x125 x39 x94)))))))
(assert (not (and (= (x125 x39 x105) x94) (and (= x39 (x125 x105 x102)) (and (= (x125 x94 x102) x73) (= x105 (x125 x102 x102)))))))
(assert (and (and (and (not (= x105 (x125 x105 x105))) (and (not (= (x125 x73 x73) x73)) (not (= x94 (x125 x94 x94))))) (not (= (x125 x102 x102) x102))) (not (= x39 (x125 x39 x39)))))
(assert (not (and (and (= x105 (x125 x94 x39)) (and (= x73 (x125 x102 x39)) (= x94 (x125 x39 x39)))) (= x102 (x125 x105 x94)))))
(assert (let ((x143 (x125 x39 x102)) (x4 (x125 x94 x102)) (x42 (x125 x105 x73)) (x96 (x125 x94 x39)) (x53 (x125 x105 x94)) (x147 (x125 x73 x105)) (x76 (x125 x73 x39)) (x121 (x125 x102 x73)) (x46 (x125 x105 x39)) (x123 (x125 x73 x94)) (x45 (x125 x73 x73)) (x57 (x125 x73 x102)) (x134 (x125 x39 x73)) (x108 (x125 x102 x102)) (x49 (x125 x102 x105)) (x139 (x125 x39 x94)) (x63 (x125 x39 x39)) (x38 (x125 x102 x94)) (x8 (x125 x94 x73)) (x56 (x125 x105 x105)) (x55 (x125 x102 x39)) (x7 (x125 x94 x94)) (x116 (x125 x39 x105)) (x95 (x125 x105 x102)) (x154 (x125 x94 x105))) (and (and (and (and (and (and (not (= x139 x38)) (and (and (not (= x53 x38)) (and (not (= x7 x139)) (and (and (and (not (= x123 x139)) (and (not (= x38 x123)) (and (not (= x7 x123)) (not (= x123 x53))))) (not (= x53 x7))) (not (= x7 x38))))) (not (= x139 x53)))) (and (and (and (and (not (= x134 x8)) (and (and (not (= x8 x42)) (and (not (= x134 x45)) (and (and (not (= x42 x45)) (not (= x45 x8))) (not (= x121 x45))))) (not (= x121 x8)))) (not (= x121 x42))) (not (= x42 x134))) (not (= x134 x121)))) (and (not (= x49 x116)) (and (and (not (= x56 x49)) (and (and (not (= x49 x154)) (and (not (= x56 x154)) (and (and (and (not (= x147 x56)) (not (= x147 x154))) (not (= x147 x49))) (not (= x147 x116))))) (not (= x154 x116)))) (not (= x116 x56))))) (and (and (not (= x95 x143)) (and (and (and (and (not (= x95 x4)) (and (not (= x57 x143)) (and (not (= x57 x108)) (and (not (= x4 x57)) (not (= x57 x95)))))) (not (= x4 x108))) (not (= x143 x4))) (not (= x95 x108)))) (not (= x108 x143)))) (and (not (= x63 x55)) (and (not (= x63 x46)) (and (and (and (and (not (= x46 x96)) (and (and (and (not (= x76 x46)) (not (= x96 x76))) (not (= x55 x76))) (not (= x63 x76)))) (not (= x55 x96))) (not (= x96 x63))) (not (= x46 x55)))))) (and (and (and (and (and (not (= x63 x139)) (and (not (= x139 x143)) (and (not (= x139 x116)) (and (not (= x63 x134)) (and (and (not (= x139 x134)) (not (= x116 x134))) (not (= x134 x143))))))) (not (= x143 x116))) (not (= x116 x63))) (not (= x143 x63))) (and (and (and (and (and (and (and (and (not (= x53 x56)) (and (and (not (= x95 x42)) (and (not (= x42 x56)) (not (= x42 x53)))) (not (= x46 x42)))) (not (= x95 x53))) (not (= x53 x46))) (not (= x95 x56))) (not (= x46 x56))) (not (= x46 x95))) (and (and (and (and (and (not (= x7 x96)) (and (not (= x7 x4)) (and (not (= x7 x154)) (and (not (= x8 x96)) (and (not (= x4 x8)) (and (not (= x7 x8)) (not (= x8 x154)))))))) (not (= x154 x4))) (not (= x154 x96))) (not (= x96 x4))) (and (not (= x57 x76)) (and (not (= x147 x76)) (and (not (= x57 x147)) (and (not (= x123 x76)) (and (and (not (= x147 x123)) (and (and (not (= x57 x45)) (and (not (= x45 x147)) (not (= x45 x123)))) (not (= x76 x45)))) (not (= x57 x123))))))))) (and (not (= x108 x55)) (and (and (and (not (= x38 x55)) (and (and (not (= x38 x49)) (and (not (= x121 x55)) (and (not (= x108 x121)) (and (not (= x121 x38)) (not (= x121 x49)))))) (not (= x108 x38)))) (not (= x108 x49))) (not (= x49 x55)))))))))
(assert (not (and (= x94 (x125 x39 x102)) (and (= (x125 x102 x73) x39) (and (= (x125 x94 x73) x105) (= (x125 x73 x73) x102))))))
(assert (or (or (and (not (= (x125 x102 (x125 x102 x39)) x39)) (and (and (not (= x105 (x125 x102 (x125 x102 x105)))) (and (not (= x73 (x125 x102 (x125 x102 x73)))) (not (= x94 (x125 x102 (x125 x102 x94)))))) (not (= (x125 x102 (x125 x102 x102)) x102)))) (or (or (and (not (= (x125 x94 (x125 x94 x39)) x39)) (and (not (= x102 (x125 x94 (x125 x94 x102)))) (and (not (= x105 (x125 x94 (x125 x94 x105)))) (and (not (= x73 (x125 x94 (x125 x94 x73)))) (not (= x94 (x125 x94 (x125 x94 x94)))))))) (and (not (= (x125 x73 (x125 x73 x39)) x39)) (and (not (= x102 (x125 x73 (x125 x73 x102)))) (and (and (not (= x73 (x125 x73 (x125 x73 x73)))) (not (= (x125 x73 (x125 x73 x94)) x94))) (not (= (x125 x73 (x125 x73 x105)) x105)))))) (and (not (= x39 (x125 x105 (x125 x105 x39)))) (and (not (= (x125 x105 (x125 x105 x102)) x102)) (and (not (= x105 (x125 x105 (x125 x105 x105)))) (and (not (= x94 (x125 x105 (x125 x105 x94)))) (not (= (x125 x105 (x125 x105 x73)) x73)))))))) (and (not (= x39 (x125 x39 (x125 x39 x39)))) (and (and (and (not (= (x125 x39 (x125 x39 x94)) x94)) (not (= (x125 x39 (x125 x39 x73)) x73))) (not (= (x125 x39 (x125 x39 x105)) x105))) (not (= (x125 x39 (x125 x39 x102)) x102))))))
(assert (not (and (= (x125 x94 x39) x73) (and (= (x125 x39 x102) x94) (and (= x39 (x125 x102 x102)) (= x105 (x125 x73 x102)))))))
(assert (not (and (and (= x105 (x125 x102 x39)) (and (= x94 (x125 x73 x39)) (= (x125 x39 x39) x102))) (= (x125 x105 x102) x73))))
(assert (not (and (and (= (x125 x39 x73) x94) (and (= x102 (x125 x105 x73)) (= (x125 x73 x73) x39))) (= x105 (x125 x94 x39)))))
(assert (not (and (= x73 (x125 x105 x94)) (and (and (= x94 (x125 x39 x39)) (= (x125 x73 x39) x102)) (= x105 (x125 x94 x39))))))
(assert (not (and (and (and (= (x125 x94 x94) x102) (= x39 (x125 x73 x94))) (= (x125 x102 x94) x105)) (= x73 (x125 x105 x102)))))
(assert (not (and (and (= (x125 x102 x39) x73) (and (= (x125 x105 x39) x94) (= x102 (x125 x39 x39)))) (= x105 (x125 x73 x102)))))
(assert (not (and (and (and (= x102 (x125 x94 x94)) (= x105 (x125 x39 x94))) (= (x125 x102 x94) x73)) (= (x125 x73 x102) x39))))
(assert (not (and (= (x125 x94 x39) x102) (and (and (= (x125 x105 x105) x39) (= x73 (x125 x102 x105))) (= (x125 x39 x105) x94)))))
(assert (not (and (= (x125 x94 x73) x102) (and (= (x125 x73 x105) x94) (and (= x73 (x125 x105 x105)) (= x39 (x125 x102 x105)))))))
(assert (let ((x96 (x125 x94 x39)) (x110 (x125 x39 x94)) (x67 (x125 x39 x102)) (x66 (x125 x39 x39)) (x134 (x125 x73 x102)) (x123 (x125 x73 x39)) (x32 (x125 x105 x105)) (x38 (x125 x105 x73)) (x42 (x125 x73 x94)) (x143 (x125 x94 x105)) (x8 (x125 x73 x73)) (x76 (x125 x94 x102)) (x121 (x125 x73 x105)) (x139 (x125 x102 x73)) (x31 (x125 x102 x102)) (x61 (x125 x102 x39)) (x135 (x125 x102 x105)) (x34 (x125 x39 x105)) (x157 (x125 x105 x39)) (x53 (x125 x94 x73)) (x147 (x125 x39 x73)) (x101 (x125 x102 x94)) (x108 (x125 x94 x94)) (x12 (x125 x105 x102)) (x63 (x125 x105 x94))) (let ((x74 (= x102 x108)) (x132 (= x39 x12)) (x25 (= x102 x32)) (x138 (= x39 x42)) (x57 (= x42 x73)) (x75 (= x147 x39)) (x64 (= x96 x105)) (x120 (= x73 x143)) (x131 (= x38 x105)) (x29 (= x101 x73)) (x109 (= x96 x102)) (x80 (= x94 x66)) (x91 (= x73 x61)) (x71 (= x157 x105)) (x22 (= x139 x94)) (x87 (= x102 x143)) (x54 (= x102 x12)) (x41 (= x102 x34)) (x142 (= x39 x31)) (x78 (= x105 x61)) (x10 (= x94 x31)) (x52 (= x94 x32)) (x69 (= x39 x76)) (x90 (= x102 x157)) (x84 (= x143 x94)) (x2 (= x12 x94)) (x97 (= x94 x67)) (x158 (= x94 x96)) (x115 (= x76 x105)) (x55 (= x108 x94)) (x82 (= x134 x73)) (x21 (= x157 x73)) (x28 (= x105 x108)) (x18 (= x76 x102)) (x117 (= x101 x102)) (x137 (= x123 x102)) (x140 (= x63 x39)) (x126 (= x73 x135)) (x93 (= x121 x73)) (x37 (= x94 x34)) (x103 (= x12 x73)) (x14 (= x61 x94)) (x45 (= x73 x8)) (x92 (= x110 x94)) (x50 (= x61 x39)) (x58 (= x123 x94)) (x26 (= x73 x66)) (x19 (= x73 x38)) (x152 (= x102 x63)) (x149 (= x110 x39)) (x113 (= x143 x39)) (x24 (= x94 x157)) (x65 (= x105 x121)) (x148 (= x32 x39)) (x23 (= x105 x135)) (x5 (= x31 x105)) (x156 (= x102 x31)) (x116 (= x53 x73)) (x60 (= x102 x134)) (x27 (= x12 x105)) (x4 (= x108 x73)) (x17 (= x34 x73)) (x88 (= x143 x105)) (x79 (= x147 x94)) (x36 (= x63 x73)) (x122 (= x42 x105)) (x128 (= x73 x31)) (x106 (= x101 x105)) (x154 (= x8 x105)) (x114 (= x96 x39)) (x144 (= x121 x39)) (x33 (= x102 x66)) (x56 (= x102 x8)) (x85 (= x134 x105)) (x146 (= x73 x147)) (x151 (= x139 x102)) (x3 (= x105 x110)) (x141 (= x67 x73)) (x46 (= x94 x42)) (x104 (= x73 x76)) (x118 (= x101 x94)) (x48 (= x102 x135)) (x99 (= x105 x53)) (x81 (= x105 x139)) (x98 (= x110 x102)) (x145 (= x135 x39)) (x49 (= x39 x8)) (x155 (= x73 x110)) (x119 (= x39 x139)) (x112 (= x67 x105)) (x43 (= x39 x157)) (x6 (= x102 x147)) (x11 (= x94 x63)) (x124 (= x105 x123)) (x15 (= x38 x94)) (x83 (= x32 x73)) (x72 (= x123 x39)) (x129 (= x121 x94)) (x70 (= x38 x102)) (x7 (= x94 x8)) (x20 (= x96 x73)) (x62 (= x121 x102)) (x9 (= x39 x53)) (x150 (= x73 x123)) (x13 (= x32 x105)) (x111 (= x39 x101)) (x89 (= x94 x135)) (x68 (= x134 x94)) (x86 (= x67 x102)) (x35 (= x39 x66)) (x16 (= x39 x67)) (x51 (= x66 x105)) (x30 (= x102 x53)) (x133 (= x105 x147)) (x59 (= x105 x34)) (x44 (= x102 x61)) (x95 (= x94 x53)) (x47 (= x63 x105)) (x100 (= x108 x39)) (x136 (= x39 x34)) (x77 (= x38 x39)) (x130 (= x73 x139)) (x107 (= x134 x39)) (x127 (= x76 x94)) (x1 (= x42 x102))) (and (and (and (and (and (and (and (or (or (or x70 (or x30 x56)) x151) x6) (or (or (or x62 (or x1 x56)) x60) x137)) (and (and (or (or x85 (or (or x122 x154) x65)) x124) (or (or x81 (or (or x154 x99) x131)) x133)) (and (and (or x58 (or x68 (or (or x7 x46) x129))) (or (or (or (or x7 x95) x15) x22) x79)) (and (or (or x130 (or x19 (or x116 x45))) x146) (or (or x82 (or (or x57 x45) x93)) x150))))) (and (or (or (or x144 (or x49 x138)) x107) x72) (or (or x119 (or (or x9 x49) x77)) x75))) (and (and (or (or x69 (or x113 (or x100 x9))) x114) (or (or (or (or x138 x100) x140) x111) x149)) (and (and (and (or (or x106 (or (or x28 x122) x47)) x3) (or (or (or (or x28 x99) x88) x115) x64)) (and (and (or (or (or x36 (or x57 x4)) x29) x155) (or (or (or x120 (or x116 x4)) x104) x20)) (and (or x158 (or x127 (or x84 (or x55 x95)))) (or x92 (or (or x11 (or x55 x46)) x118))))) (and (or x109 (or x18 (or (or x30 x74) x87))) (or x98 (or (or (or x74 x1) x152) x117)))))) (and (and (or (or (or x148 (or x113 x144)) x145) x136) (or (or x132 (or (or x140 x77) x148)) x43)) (and (and (and (and (or (or x89 (or (or x129 x84) x52)) x37) (or (or (or x52 (or x15 x11)) x2) x24)) (and (or x17 (or (or (or x93 x120) x83) x126)) (or (or (or (or x36 x19) x83) x103) x21))) (and (or x71 (or (or (or x47 x131) x13) x27)) (or (or x23 (or (or x65 x88) x13)) x59))) (and (or (or (or (or x62 x87) x25) x48) x41) (or (or (or x25 (or x70 x152)) x54) x90))))) (and (and (or (or (or x145 (or x111 x119)) x142) x50) (or x16 (or x142 (or (or x107 x69) x132)))) (and (and (and (or x78 (or x5 (or x23 (or x106 x81)))) (or (or (or x27 (or x85 x115)) x5) x112)) (and (and (or x14 (or x10 (or (or x22 x118) x89))) (or (or x10 (or x2 (or x127 x68))) x97)) (and (or x91 (or x128 (or x126 (or x130 x29)))) (or x141 (or (or x103 (or x82 x104)) x128))))) (and (or (or (or x48 (or x117 x151)) x156) x44) (or x86 (or x156 (or x54 (or x60 x18)))))))) (and (and (or x35 (or (or (or x114 x72) x43) x50)) (or x35 (or x16 (or (or x75 x149) x136)))) (and (and (or (or (or (or x6 x98) x41) x86) x33) (or x33 (or x44 (or (or x137 x109) x90)))) (and (and (or x51 (or (or (or x64 x124) x71) x78)) (or (or (or (or x3 x133) x59) x112) x51)) (and (and (or x26 (or (or (or x150 x20) x21) x91)) (or x26 (or (or x17 (or x155 x146)) x141))) (and (or (or (or (or x158 x58) x24) x14) x80) (or (or x97 (or x37 (or x79 x92))) x80))))))))))
(assert (not (and (= (x125 x105 x39) x102) (and (and (= x94 (x125 x102 x73)) (= (x125 x73 x73) x39)) (= (x125 x39 x73) x105)))))
(assert (not (and (= x73 (x125 x102 x94)) (and (= x102 (x125 x94 x105)) (and (= (x125 x105 x105) x94) (= x39 (x125 x73 x105)))))))
(assert (not (and (= x102 (x125 x73 x105)) (and (and (= (x125 x39 x39) x105) (= (x125 x102 x39) x94)) (= (x125 x105 x39) x73)))))
(assert (not (and (and (and (= x73 (x125 x102 x102)) (= x39 (x125 x105 x102))) (= x94 (x125 x73 x102))) (= (x125 x94 x73) x105))))
(assert (not (and (= x94 (x125 x102 x39)) (and (= x102 (x125 x39 x105)) (and (= x73 (x125 x94 x105)) (= (x125 x105 x105) x39))))))
(assert (not (and (and (= x94 (x125 x39 x73)) (and (= x105 (x125 x102 x73)) (= (x125 x73 x73) x39))) (= (x125 x94 x39) x102))))
(assert (not (and (= (x125 x102 x94) x39) (and (= x102 (x125 x94 x105)) (and (= (x125 x39 x105) x73) (= (x125 x105 x105) x94))))))
(assert (not (and (= x105 (x125 x102 x94)) (and (= (x125 x94 x39) x102) (and (= x73 (x125 x105 x39)) (= (x125 x39 x39) x94))))))
(assert (not (and (and (= x73 (x125 x105 x102)) (and (= x105 (x125 x102 x102)) (= (x125 x94 x102) x39))) (= x94 (x125 x73 x105)))))
(assert (not (and (= (x125 x39 x73) x94) (and (and (= (x125 x94 x102) x105) (= x73 (x125 x102 x102))) (= (x125 x73 x102) x39)))))
(assert (not (and (and (= (x125 x39 x94) x102) (and (= x73 (x125 x105 x94)) (= x39 (x125 x94 x94)))) (= (x125 x102 x39) x105))))
(assert (not (and (and (and (= (x125 x39 x39) x102) (= x105 (x125 x94 x39))) (= x73 (x125 x102 x39))) (= (x125 x73 x102) x94))))
(assert (not (and (and (and (= x105 (x125 x39 x39)) (= x102 (x125 x94 x39))) (= x73 (x125 x105 x39))) (= x94 (x125 x73 x105)))))
(assert (not (and (and (and (= x73 (x125 x94 x94)) (= (x125 x102 x94) x39)) (= (x125 x73 x94) x105)) (= x102 (x125 x105 x73)))))
(assert (not (and (and (= (x125 x39 x94) x105) (and (= (x125 x73 x94) x102) (= (x125 x94 x94) x39))) (= (x125 x105 x39) x73))))
(assert (not (and (= (x125 x39 x102) x94) (and (and (= (x125 x105 x105) x102) (= x73 (x125 x94 x105))) (= x39 (x125 x102 x105))))))
(assert (not (and (and (= (x125 x102 x73) x39) (and (= (x125 x105 x73) x94) (= (x125 x73 x73) x102))) (= x105 (x125 x39 x102)))))
(assert (not (and (= x73 (x125 x102 x39)) (and (= (x125 x39 x105) x102) (and (= x94 (x125 x73 x105)) (= x39 (x125 x105 x105)))))))
(assert (not (and (= (x125 x73 x94) x102) (and (and (= x39 (x125 x102 x105)) (= (x125 x105 x105) x94)) (= x73 (x125 x94 x105))))))
(assert (not (and (and (= (x125 x39 x94) x73) (and (= (x125 x105 x94) x102) (= x39 (x125 x94 x94)))) (= (x125 x73 x39) x105))))
(assert (not (and (= x105 (x125 x39 x94)) (and (and (= x73 (x125 x105 x102)) (= x94 (x125 x102 x102))) (= (x125 x94 x102) x39)))))
(assert (let ((x121 (x125 x102 x102)) (x134 (x125 x39 x39)) (x42 (x125 x105 x105)) (x8 (x125 x94 x94)) (x45 (x125 x73 x73))) (or (and (not (= x39 x134)) (and (not (= x121 x39)) (and (and (not (= x45 x39)) (not (= x39 x8))) (not (= x39 x42))))) (or (or (and (not (= x105 x134)) (and (and (and (not (= x105 x45)) (not (= x8 x105))) (not (= x105 x42))) (not (= x105 x121)))) (or (and (not (= x134 x94)) (and (and (not (= x42 x94)) (and (not (= x8 x94)) (not (= x94 x45)))) (not (= x121 x94)))) (and (and (and (not (= x73 x42)) (and (not (= x73 x45)) (not (= x8 x73)))) (not (= x121 x73))) (not (= x73 x134))))) (and (not (= x102 x134)) (and (not (= x121 x102)) (and (not (= x102 x42)) (and (not (= x45 x102)) (not (= x102 x8))))))))))
(assert (not (and (= x102 (x125 x73 x39)) (and (and (= x105 (x125 x102 x94)) (= x39 (x125 x94 x94))) (= (x125 x39 x94) x73)))))
(assert (not (and (= x94 (x125 x73 x39)) (and (and (= x105 (x125 x94 x102)) (= x39 (x125 x102 x102))) (= x73 (x125 x39 x102))))))
(assert (not (and (= (x125 x94 x39) x105) (and (= (x125 x39 x102) x94) (and (= (x125 x102 x102) x39) (= x73 (x125 x105 x102)))))))
(assert (and (or (or (or (= (x125 (x125 x39 x105) x39) x105) (or (= x94 (x125 (x125 x39 x94) x39)) (= (x125 (x125 x39 x73) x39) x73))) (= (x125 (x125 x39 x102) x39) x102)) (= (x125 (x125 x39 x39) x39) x39)) (and (and (or (or (or (or (= x73 (x125 (x125 x105 x73) x105)) (= (x125 (x125 x105 x94) x105) x94)) (= (x125 (x125 x105 x105) x105) x105)) (= x102 (x125 (x125 x105 x102) x105))) (= (x125 (x125 x105 x39) x105) x39)) (and (or (or (= (x125 (x125 x73 x102) x73) x102) (or (= (x125 (x125 x73 x105) x73) x105) (or (= x73 (x125 (x125 x73 x73) x73)) (= (x125 (x125 x73 x94) x73) x94)))) (= x39 (x125 (x125 x73 x39) x73))) (or (or (or (or (= x94 (x125 (x125 x94 x94) x94)) (= x73 (x125 (x125 x94 x73) x94))) (= x105 (x125 (x125 x94 x105) x94))) (= x102 (x125 (x125 x94 x102) x94))) (= x39 (x125 (x125 x94 x39) x94))))) (or (= (x125 (x125 x102 x39) x102) x39) (or (= (x125 (x125 x102 x102) x102) x102) (or (= x105 (x125 (x125 x102 x105) x102)) (or (= (x125 (x125 x102 x94) x102) x94) (= x73 (x125 (x125 x102 x73) x102)))))))))
(assert (not (and (and (= (x125 x94 x73) x102) (and (= x94 (x125 x73 x73)) (= (x125 x39 x73) x105))) (= x39 (x125 x102 x94)))))
(assert (not (and (and (and (= (x125 x105 x94) x39) (= (x125 x94 x94) x73)) (= x102 (x125 x73 x94))) (= (x125 x102 x73) x105))))
(assert (not (and (and (and (= (x125 x102 x102) x105) (= (x125 x73 x102) x39)) (= (x125 x105 x102) x94)) (= x73 (x125 x94 x105)))))
(assert (not (and (= x73 (x125 x105 x94)) (and (= x105 (x125 x94 x102)) (and (= x94 (x125 x102 x102)) (= x39 (x125 x73 x102)))))))
(assert (not (and (and (= x73 (x125 x94 x39)) (and (= x102 (x125 x105 x39)) (= x94 (x125 x39 x39)))) (= x105 (x125 x73 x94)))))
(assert (not (and (= (x125 x73 x39) x105) (and (= x73 (x125 x39 x102)) (and (= x94 (x125 x105 x102)) (= (x125 x102 x102) x39))))))
(assert (not (and (= (x125 x102 x73) x39) (and (and (= x73 (x125 x105 x105)) (= x94 (x125 x39 x105))) (= (x125 x73 x105) x102)))))
(assert (not (and (and (= x39 (x125 x102 x94)) (and (= (x125 x94 x94) x102) (= (x125 x73 x94) x105))) (= (x125 x39 x102) x73))))
(assert (not (and (= (x125 x105 x102) x94) (and (and (= x39 (x125 x94 x73)) (= x102 (x125 x73 x73))) (= x105 (x125 x102 x73))))))
(assert (not (and (and (= (x125 x105 x73) x102) (and (= (x125 x94 x73) x39) (= (x125 x73 x73) x105))) (= x94 (x125 x102 x105)))))
(assert (not (and (and (and (= (x125 x105 x105) x39) (= x102 (x125 x73 x105))) (= (x125 x39 x105) x94)) (= x73 (x125 x94 x39)))))
(assert (not (and (= (x125 x39 x105) x94) (and (and (= (x125 x94 x73) x102) (= (x125 x73 x73) x105)) (= x39 (x125 x105 x73))))))
(assert (not (and (and (and (= (x125 x73 x73) x94) (= x39 (x125 x102 x73))) (= x105 (x125 x94 x73))) (= (x125 x105 x94) x102))))
(assert (not (and (= (x125 x39 x105) x73) (and (and (= x105 (x125 x102 x102)) (= x94 (x125 x73 x102))) (= (x125 x105 x102) x39)))))
(assert (not (and (= (x125 x39 x94) x105) (and (= x39 (x125 x94 x73)) (and (= x102 (x125 x105 x73)) (= x94 (x125 x73 x73)))))))
(assert (not (and (= (x125 x39 x94) x73) (and (and (= x94 (x125 x102 x102)) (= (x125 x73 x102) x105)) (= x39 (x125 x94 x102))))))
(assert (not (and (= (x125 x39 x73) x102) (and (and (= (x125 x102 x105) x94) (= (x125 x105 x105) x73)) (= (x125 x73 x105) x39)))))
(assert (not (and (= x73 (x125 x39 x105)) (and (and (= (x125 x73 x94) x102) (= (x125 x94 x94) x105)) (= x39 (x125 x105 x94))))))
(assert (not (and (= x105 (x125 x94 x102)) (and (= x94 (x125 x102 x73)) (and (= (x125 x105 x73) x39) (= (x125 x73 x73) x102))))))
(check-sat)
(exit)
